db/inputs/305972994626077195132376226189191057723.smt2
(set-logic QF_FP)
(declare-const x0 (_ FloatingPoint 11 53))
(declare-const x1 (_ FloatingPoint 11 53))
(declare-const x2 (_ FloatingPoint 11 53))
(declare-const x3 (_ FloatingPoint 11 53))
(declare-const x4 (_ FloatingPoint 11 53))
(declare-const x5 (_ FloatingPoint 11 53))
(declare-const x6 (_ FloatingPoint 11 53))
(declare-const x7 (_ FloatingPoint 11 53))
(declare-const x8 (_ FloatingPoint 11 53))
(declare-const x9 (_ FloatingPoint 11 53))
(declare-const x10 (_ FloatingPoint 11 53))
(declare-const x11 (_ FloatingPoint 11 53))
(declare-const x12 (_ FloatingPoint 11 53))
(declare-const x13 (_ FloatingPoint 11 53))
(declare-const x14 (_ FloatingPoint 11 53))
(declare-const x15 (_ FloatingPoint 11 53))
(declare-const x16 (_ FloatingPoint 11 53))
(declare-const x17 (_ FloatingPoint 11 53))
(declare-const x18 (_ FloatingPoint 11 53))
(declare-const x19 (_ FloatingPoint 11 53))
(declare-const x20 (_ FloatingPoint 11 53))
(assert (fp.eq (fp.sub RNE (fp.mul RNE (fp.mul RNE (fp.neg x15) (fp.neg x16)) (fp.div RNE (fp.div RNE x15 x4) (fp.add RNE x4 x0))) (fp.sub RNE (fp.mul RNE (fp.neg x8) (fp.div RNE x12 x11)) (fp.neg (fp.add RNE x7 x16)))) (fp.neg (fp.mul RNE (fp.div RNE (fp.mul RNE x20 x12) (fp.mul RNE x12 x10)) (fp.mul RNE (fp.add RNE x19 x3) (fp.div RNE x10 x4))))))
(assert (fp.leq (fp.mul RNE (fp.neg (fp.neg (fp.add RNE x17 x17))) (fp.neg (fp.sub RNE (fp.sub RNE x15 x12) (fp.mul RNE x9 x3)))) (fp.add RNE (fp.add RNE (fp.neg (fp.mul RNE x13 x2)) (fp.sub RNE (fp.sub RNE x11 x10) (fp.neg x13))) (fp.add RNE (fp.add RNE (fp.sub RNE x9 x17) (fp.div RNE x7 x8)) (fp.div RNE (fp.add RNE x15 x2) (fp.sub RNE x8 x19))))))
(assert (fp.geq (fp.div RNE (fp.sub RNE (fp.sub RNE (fp.div RNE x10 x20) (fp.mul RNE x1 x16)) (fp.mul RNE (fp.div RNE x13 x15) (fp.neg x14))) (fp.sub RNE (fp.sub RNE (fp.div RNE x5 x0) (fp.mul RNE x4 x14)) (fp.div RNE (fp.mul RNE x14 x17) (fp.mul RNE x11 x4)))) (fp.add RNE (fp.add RNE (fp.sub RNE (fp.mul RNE x7 x5) (fp.div RNE x12 x2)) (fp.sub RNE (fp.add RNE x10 x18) (fp.div RNE x1 x1))) (fp.add RNE (fp.add RNE (fp.sub RNE x2 x11) (fp.add RNE x11 x2)) (fp.add RNE (fp.sub RNE x2 x11) (fp.div RNE x11 x15))))))
(assert (fp.geq (fp.sub RNE (fp.add RNE (fp.sub RNE (fp.add RNE x18 x17) (fp.mul RNE x8 x11)) (fp.sub RNE (fp.sub RNE x19 x18) (fp.div RNE x1 x5))) (fp.add RNE (fp.div RNE (fp.div RNE x11 x18) (fp.mul RNE x18 x5)) (fp.add RNE (fp.sub RNE x13 x20) (fp.div RNE x0 x6)))) (fp.neg (fp.mul RNE (fp.add RNE (fp.sub RNE x5 x20) (fp.sub RNE x16 x8)) (fp.add RNE (fp.sub RNE x6 x10) (fp.sub RNE x4 x6))))))
(assert (fp.geq (fp.div RNE (fp.sub RNE (fp.sub RNE (fp.neg x6) (fp.add RNE x8 x14)) (fp.neg (fp.sub RNE x17 x18))) (fp.mul RNE (fp.add RNE (fp.div RNE x14 x1) (fp.neg x12)) (fp.div RNE (fp.mul RNE x17 x6) (fp.sub RNE x7 x18)))) (fp.div RNE (fp.div RNE (fp.sub RNE (fp.mul RNE x14 x5) (fp.mul RNE x1 x4)) (fp.sub RNE (fp.sub RNE x11 x0) (fp.add RNE x10 x3))) (fp.neg (fp.sub RNE (fp.sub RNE x1 x12) (fp.mul RNE x17 x2))))))
(assert (fp.lt (fp.div RNE (fp.neg (fp.add RNE (fp.add RNE x8 x4) (fp.add RNE x17 x14))) (fp.sub RNE (fp.neg (fp.mul RNE x6 x10)) (fp.div RNE (fp.add RNE x18 x9) (fp.add RNE x2 x15)))) (fp.sub RNE (fp.add RNE (fp.div RNE (fp.neg x1) (fp.neg x0)) (fp.sub RNE (fp.sub RNE x17 x15) (fp.sub RNE x16 x9))) (fp.div RNE (fp.neg (fp.div RNE x5 x17)) (fp.neg (fp.sub RNE x9 x2))))))
(assert (fp.leq (fp.add RNE (fp.neg (fp.neg (fp.add RNE x6 x9))) (fp.mul RNE (fp.neg (fp.mul RNE x5 x6)) (fp.div RNE (fp.sub RNE x15 x4) (fp.add RNE x1 x20)))) (fp.div RNE (fp.sub RNE (fp.neg (fp.add RNE x15 x6)) (fp.div RNE (fp.mul RNE x2 x4) (fp.neg x5))) (fp.sub RNE (fp.div RNE (fp.add RNE x14 x18) (fp.neg x10)) (fp.sub RNE (fp.mul RNE x3 x19) (fp.mul RNE x4 x6))))))
(assert (fp.gt (fp.add RNE (fp.add RNE (fp.add RNE (fp.div RNE x20 x3) (fp.add RNE x3 x18)) (fp.sub RNE (fp.add RNE x9 x6) (fp.sub RNE x14 x18))) (fp.add RNE (fp.neg (fp.div RNE x20 x4)) (fp.mul RNE (fp.add RNE x3 x17) (fp.div RNE x17 x11)))) (fp.div RNE (fp.neg (fp.sub RNE (fp.add RNE x6 x18) (fp.add RNE x12 x17))) (fp.add RNE (fp.add RNE (fp.mul RNE x9 x10) (fp.div RNE x9 x9)) (fp.mul RNE (fp.add RNE x9 x1) (fp.sub RNE x15 x1))))))
(assert (fp.eq (fp.neg (fp.add RNE (fp.sub RNE (fp.sub RNE x1 x9) (fp.add RNE x10 x7)) (fp.neg (fp.neg x1)))) (fp.sub RNE (fp.mul RNE (fp.mul RNE (fp.add RNE x5 x20) (fp.add RNE x11 x1)) (fp.add RNE (fp.div RNE x5 x1) (fp.neg x13))) (fp.mul RNE (fp.neg (fp.sub RNE x3 x12)) (fp.sub RNE (fp.add RNE x19 x7) (fp.add RNE x0 x19))))))
(assert (fp.gt (fp.add RNE (fp.mul RNE (fp.neg (fp.add RNE x2 x4)) (fp.sub RNE (fp.neg x16) (fp.div RNE x0 x19))) (fp.sub RNE (fp.add RNE (fp.neg x17) (fp.neg x16)) (fp.add RNE (fp.add RNE x13 x1) (fp.add RNE x5 x3)))) (fp.neg (fp.sub RNE (fp.sub RNE (fp.mul RNE x0 x2) (fp.div RNE x13 x4)) (fp.add RNE (fp.add RNE x15 x13) (fp.neg x13))))))
(assert (fp.geq (fp.mul RNE (fp.sub RNE (fp.add RNE (fp.add RNE x4 x10) (fp.add RNE x18 x15)) (fp.add RNE (fp.add RNE x10 x5) (fp.mul RNE x0 x19))) (fp.sub RNE (fp.div RNE (fp.div RNE x19 x6) (fp.neg x6)) (fp.mul RNE (fp.div RNE x9 x7) (fp.add RNE x10 x5)))) (fp.sub RNE (fp.mul RNE (fp.div RNE (fp.add RNE x3 x5) (fp.div RNE x7 x2)) (fp.neg (fp.div RNE x20 x18))) (fp.sub RNE (fp.add RNE (fp.add RNE x11 x8) (fp.add RNE x8 x0)) (fp.mul RNE (fp.neg x4) (fp.mul RNE x4 x1))))))
(assert (fp.lt (fp.neg (fp.sub RNE (fp.neg (fp.add RNE x5 x1)) (fp.neg (fp.add RNE x19 x0)))) (fp.mul RNE (fp.neg (fp.neg (fp.neg x1))) (fp.div RNE (fp.div RNE (fp.neg x15) (fp.div RNE x10 x1)) (fp.div RNE (fp.div RNE x6 x17) (fp.div RNE x2 x18))))))
(assert (fp.gt (fp.div RNE (fp.neg (fp.neg (fp.sub RNE x17 x9))) (fp.neg (fp.div RNE (fp.sub RNE x19 x15) (fp.neg x1)))) (fp.add RNE (fp.mul RNE (fp.neg (fp.add RNE x2 x1)) (fp.add RNE (fp.div RNE x4 x0) (fp.sub RNE x4 x3))) (fp.sub RNE (fp.mul RNE (fp.mul RNE x4 x18) (fp.sub RNE x19 x5)) (fp.sub RNE (fp.neg x16) (fp.neg x8))))))
(assert (fp.eq (fp.div RNE (fp.mul RNE (fp.mul RNE (fp.div RNE x12 x9) (fp.sub RNE x12 x15)) (fp.mul RNE (fp.add RNE x9 x16) (fp.add RNE x18 x10))) (fp.mul RNE (fp.mul RNE (fp.sub RNE x4 x4) (fp.neg x4)) (fp.sub RNE (fp.div RNE x3 x9) (fp.sub RNE x5 x16)))) (fp.div RNE (fp.mul RNE (fp.add RNE (fp.add RNE x8 x19) (fp.sub RNE x16 x17)) (fp.sub RNE (fp.div RNE x1 x16) (fp.mul RNE x10 x19))) (fp.sub RNE (fp.mul RNE (fp.div RNE x10 x14) (fp.mul RNE x19 x10)) (fp.div RNE (fp.sub RNE x15 x7) (fp.div RNE x10 x16))))))
(assert (fp.gt (fp.neg (fp.div RNE (fp.neg (fp.div RNE x17 x6)) (fp.neg (fp.neg x16)))) (fp.neg (fp.neg (fp.div RNE (fp.div RNE x3 x6) (fp.neg x5))))))
(assert (fp.leq (fp.mul RNE (fp.sub RNE (fp.div RNE (fp.div RNE x14 x19) (fp.div RNE x15 x14)) (fp.mul RNE (fp.neg x19) (fp.div RNE x2 x2))) (fp.div RNE (fp.add RNE (fp.add RNE x10 x20) (fp.sub RNE x6 x7)) (fp.neg (fp.add RNE x8 x10)))) (fp.sub RNE (fp.add RNE (fp.sub RNE (fp.div RNE x15 x2) (fp.div RNE x16 x16)) (fp.neg (fp.mul RNE x9 x11))) (fp.add RNE (fp.add RNE (fp.neg x15) (fp.sub RNE x6 x20)) (fp.add RNE (fp.div RNE x18 x16) (fp.sub RNE x16 x1))))))
(assert (fp.leq (fp.sub RNE (fp.add RNE (fp.sub RNE (fp.div RNE x1 x12) (fp.sub RNE x13 x16)) (fp.add RNE (fp.sub RNE x13 x3) (fp.neg x20))) (fp.sub RNE (fp.div RNE (fp.mul RNE x0 x5) (fp.neg x0)) (fp.sub RNE (fp.div RNE x5 x4) (fp.sub RNE x6 x3)))) (fp.add RNE (fp.sub RNE (fp.sub RNE (fp.neg x10) (fp.mul RNE x12 x5)) (fp.add RNE (fp.mul RNE x15 x19) (fp.mul RNE x12 x1))) (fp.mul RNE (fp.neg (fp.add RNE x18 x12)) (fp.neg (fp.sub RNE x7 x4))))))
(assert (fp.eq (fp.sub RNE (fp.sub RNE (fp.sub RNE (fp.neg x18) (fp.mul RNE x20 x8)) (fp.neg (fp.neg x14))) (fp.add RNE (fp.sub RNE (fp.add RNE x17 x11) (fp.sub RNE x4 x18)) (fp.div RNE (fp.mul RNE x2 x19) (fp.div RNE x13 x17)))) (fp.sub RNE (fp.div RNE (fp.div RNE (fp.mul RNE x4 x16) (fp.add RNE x2 x15)) (fp.div RNE (fp.div RNE x16 x18) (fp.div RNE x16 x20))) (fp.neg (fp.neg (fp.neg x20))))))
(assert (fp.geq (fp.div RNE (fp.mul RNE (fp.div RNE (fp.sub RNE x3 x5) (fp.mul RNE x0 x12)) (fp.add RNE (fp.mul RNE x16 x0) (fp.add RNE x16 x11))) (fp.neg (fp.neg (fp.neg x20)))) (fp.sub RNE (fp.mul RNE (fp.div RNE (fp.sub RNE x6 x4) (fp.neg x13)) (fp.neg (fp.sub RNE x14 x2))) (fp.neg (fp.div RNE (fp.add RNE x10 x5) (fp.div RNE x6 x16))))))
(check-sat)
