db/data/305972994626077195132376226189191057723.z3.out
solvers/z3/run.sh: line 2: 373007 Killed                  z3 -smt2 $1
-------------------
93.275389008
